
Gurobi 6.5.2 (linux64) logging started Tue Sep 20 21:18:46 2016


Gurobi 6.5.2 (linux64) logging started Tue Sep 20 21:18:46 2016

Optimize a model with 101 rows, 908 columns and 2067 nonzeros
Coefficient statistics:
  Matrix range    [1e+00, 2e+00]
  Objective range [1e+00, 1e+02]
  Bounds range    [1e+00, 1e+00]
  RHS range       [1e+00, 1e+00]
Presolve removed 28 rows and 1 columns
Presolve time: 0.00s
Presolved: 73 rows, 907 columns, 1885 nonzeros
Variable types: 0 continuous, 907 integer (907 binary)

Root relaxation: objective 6.415000e+02, 69 iterations, 0.00 seconds

    Nodes    |    Current Node    |     Objective Bounds      |     Work
 Expl Unexpl |  Obj  Depth IntInf | Incumbent    BestBd   Gap | It/Node Time

     0     0  641.50000    0   10          -  641.50000      -     -    0s
H    0     0                    1133.0000000  641.50000  43.4%     -    0s
     0     0  646.00000    0    6 1133.00000  646.00000  43.0%     -    0s
     0     0  647.50000    0   14 1133.00000  647.50000  42.9%     -    0s
     0     0  649.00000    0    6 1133.00000  649.00000  42.7%     -    0s
     0     0  649.00000    0   10 1133.00000  649.00000  42.7%     -    0s
     0     0  649.00000    0   10 1133.00000  649.00000  42.7%     -    0s
     0     2  649.00000    0   10 1133.00000  649.00000  42.7%     -    0s
H  827   545                     755.0000000  655.00000  13.2%   3.9    0s
* 1653   908              53     702.0000000  657.25000  6.37%   4.2    0s
* 3583  1545             121     696.0000000  659.82353  5.20%   3.9    1s
* 4092  1351              44     683.0000000  661.00000  3.22%   3.9    1s
* 4269   207              47     666.0000000  661.50000  0.68%   3.9    1s

Cutting planes:
  Gomory: 7
  Cover: 6
  Flow cover: 4
  Zero half: 5
  Lazy constraints: 753

Explored 5070 nodes (18755 simplex iterations) in 2.21 seconds
Thread count was 8 (of 8 available processors)

Optimal solution found (tolerance 1.00e-04)
Best objective 6.660000000000e+02, best bound 6.660000000000e+02, gap 0.0%
